 
data_ptp1 
 
_audit_creation_method            SHELXL-97 
_chemical_name_systematic 
; 
 ? 
; 
_chemical_name_common             ? 
_chemical_melting_point           ? 
_chemical_formula_moiety          ? 
_chemical_formula_sum 
 'C42 H32 O8 Ru2 Sb2' 
_chemical_formula_weight          1110.32 
 
loop_ 
 _atom_type_symbol 
 _atom_type_description 
 _atom_type_scat_dispersion_real 
 _atom_type_scat_dispersion_imag 
 _atom_type_scat_source 
 'C'  'C'   0.0033   0.0016 'International Tables Vol C Tables 4.2.6.8 and 6.1.1.4' 
 'H'  'H'   0.0000   0.0000 
 'International Tables Vol C Tables 4.2.6.8 and 6.1.1.4' 
 'O'  'O'   0.0106   0.0060 
 'International Tables Vol C Tables 4.2.6.8 and 6.1.1.4' 
 'Ru'  'Ru'  -1.2594   0.8363 
 'International Tables Vol C Tables 4.2.6.8 and 6.1.1.4' 
 'Sb'  'Sb'  -0.5866   1.5461 
 'International Tables Vol C Tables 4.2.6.8 and 6.1.1.4' 
 
_symmetry_cell_setting            ? 
_symmetry_space_group_name_H-M    ? 
 
loop_ 
 _symmetry_equiv_pos_as_xyz 
 'x, y, z' 
 '-x, -y, -z' 
 
_cell_length_a                    11.181(6) 
_cell_length_b                    14.102(5) 
_cell_length_c                    14.180(6) 
_cell_angle_alpha                 100.15(4) 
_cell_angle_beta                  109.66(3) 
_cell_angle_gamma                 101.48(3) 
_cell_volume                      1990.4(16) 
_cell_formula_units_Z             2 
_cell_measurement_temperature     566(2) 
_cell_measurement_reflns_used     ? 
_cell_measurement_theta_min       ? 
_cell_measurement_theta_max       ? 
 
_exptl_crystal_description        ? 
_exptl_crystal_colour             ? 
_exptl_crystal_size_max           ? 
_exptl_crystal_size_mid           ? 
_exptl_crystal_size_min           ? 
_exptl_crystal_density_meas       ? 
_exptl_crystal_density_diffrn     1.853 
_exptl_crystal_density_method     'not measured' 
_exptl_crystal_F_000              1076 
_exptl_absorpt_coefficient_mu     2.139 
_exptl_absorpt_correction_type    ? 
_exptl_absorpt_correction_T_min   ? 
_exptl_absorpt_correction_T_max   ? 
_exptl_absorpt_process_details    ? 
 
_exptl_special_details 
; 
 ? 
; 
 
_diffrn_ambient_temperature       566(2) 
_diffrn_radiation_wavelength      0.71073 
_diffrn_radiation_type            MoK\a 
_diffrn_radiation_source          'fine-focus sealed tube' 
_diffrn_radiation_monochromator   graphite 
_diffrn_measurement_device_type   ? 
_diffrn_measurement_method        ? 
_diffrn_detector_area_resol_mean  ? 
_diffrn_standards_number          ? 
_diffrn_standards_interval_count  ? 
_diffrn_standards_interval_time   ? 
_diffrn_standards_decay_%         ? 
_diffrn_reflns_number             17932 
_diffrn_reflns_av_R_equivalents   0.0310 
_diffrn_reflns_av_sigmaI/netI     0.0435 
_diffrn_reflns_limit_h_min        -14 
_diffrn_reflns_limit_h_max        14 
_diffrn_reflns_limit_k_min        -18 
_diffrn_reflns_limit_k_max        18 
_diffrn_reflns_limit_l_min        -18 
_diffrn_reflns_limit_l_max        17 
_diffrn_reflns_theta_min          1.53 
_diffrn_reflns_theta_max          28.34 
_reflns_number_total              8909 
_reflns_number_gt                 7152 
_reflns_threshold_expression      >2sigma(I) 
 
_computing_data_collection        ? 
_computing_cell_refinement        ? 
_computing_data_reduction         ? 
_computing_structure_solution     'SHELXS-97 (Sheldrick, 1990)' 
_computing_structure_refinement   'SHELXL-97 (Sheldrick, 1997)' 
_computing_molecular_graphics     ? 
_computing_publication_material   ? 
 
_refine_special_details 
; 
 Refinement of F^2^ against ALL reflections.  The weighted R-factor wR and 
 goodness of fit S are based on F^2^, conventional R-factors R are based 
 on F, with F set to zero for negative F^2^. The threshold expression of 
 F^2^ > 2sigma(F^2^) is used only for calculating R-factors(gt) etc. and is 
 not relevant to the choice of reflections for refinement.  R-factors based 
 on F^2^ are statistically about twice as large as those based on F, and R- 
 factors based on ALL data will be even larger. 
; 
 
_refine_ls_structure_factor_coef  Fsqd  
_refine_ls_matrix_type            full 
_refine_ls_weighting_scheme       calc  
_refine_ls_weighting_details 
 'calc w=1/[\s^2^(Fo^2^)+(0.2000P)^2^+0.0000P] where P=(Fo^2^+2Fc^2^)/3' 
_atom_sites_solution_primary      direct 
_atom_sites_solution_secondary    difmap 
_atom_sites_solution_hydrogens    geom 
_refine_ls_hydrogen_treatment     mixed 
_refine_ls_extinction_method      none 
_refine_ls_extinction_coef        ? 
_refine_ls_number_reflns          8909 
_refine_ls_number_parameters      495 
_refine_ls_number_restraints      0 
_refine_ls_R_factor_all           0.0465 
_refine_ls_R_factor_gt            0.0334 
_refine_ls_wR_factor_ref          0.1509 
_refine_ls_wR_factor_gt           0.1163 
_refine_ls_goodness_of_fit_ref    0.622 
_refine_ls_restrained_S_all       0.622 
_refine_ls_shift/su_max           0.001 
_refine_ls_shift/su_mean          0.000 
 
loop_ 
 _atom_site_label 
 _atom_site_type_symbol 
 _atom_site_fract_x 
 _atom_site_fract_y 
 _atom_site_fract_z 
 _atom_site_U_iso_or_equiv 
 _atom_site_adp_type 
 _atom_site_occupancy 
 _atom_site_symmetry_multiplicity 
 _atom_site_calc_flag 
 _atom_site_refinement_flags 
 _atom_site_disorder_assembly 
 _atom_site_disorder_group 
Sb1 Sb 0.41848(3) 0.69201(2) 0.30543(3) 0.03742(11) Uani 1 1 d . . . 
Ru1 Ru 0.05758(3) 0.36208(3) 0.26600(3) 0.03303(12) Uani 1 1 d . . . 
O1 O 0.1931(4) 0.5862(3) 0.4088(3) 0.0495(9) Uani 1 1 d . . . 
C1 C 0.3338(5) 0.4192(4) 0.4185(5) 0.0481(12) Uani 1 1 d . . . 
Sb2 Sb -0.10690(3) 0.21253(2) 0.29244(3) 0.03830(12) Uani 1 1 d . . . 
Ru2 Ru 0.22187(3) 0.53048(3) 0.27145(3) 0.03256(11) Uani 1 1 d . . . 
O2 O 0.0148(4) 0.4598(3) 0.3741(3) 0.0460(8) Uani 1 1 d . . . 
C2 C 0.0959(6) 0.5427(4) 0.4254(5) 0.0485(12) Uani 1 1 d . . . 
O3 O 0.2205(3) 0.3664(3) 0.4001(3) 0.0462(8) Uani 1 1 d . . . 
C3 C 0.0883(5) 0.5736(4) 0.1912(5) 0.0548(14) Uani 1 1 d . . . 
O4 O 0.3673(3) 0.4797(3) 0.3728(3) 0.0438(8) Uani 1 1 d . . . 
C4 C -0.0764(5) 0.3680(4) 0.1510(4) 0.0477(12) Uani 1 1 d . . . 
O5 O 0.1441(5) 0.2339(4) 0.1269(5) 0.0880(18) Uani 1 1 d . . . 
C5 C 0.1099(5) 0.2826(4) 0.1792(5) 0.0511(13) Uani 1 1 d . . . 
C6 C 0.2418(5) 0.4726(4) 0.1540(4) 0.0481(12) Uani 1 1 d . . . 
O6 O 0.0043(4) 0.5999(4) 0.1421(5) 0.0880(17) Uani 1 1 d . . . 
O7 O -0.1593(5) 0.3715(4) 0.0782(4) 0.0821(15) Uani 1 1 d . . . 
O8 O 0.2528(5) 0.4357(4) 0.0797(4) 0.0813(15) Uani 1 1 d . . . 
C41 C 0.5607(5) 0.7769(4) 0.4535(4) 0.0432(11) Uani 1 1 d . . . 
C42 C 0.6186(9) 0.8405(7) 0.6351(6) 0.095(3) Uani 1 1 d . . . 
H42A H 0.5961 0.8447 0.6928 0.114 Uiso 1 1 calc R . . 
C43 C 0.7420(9) 0.8907(7) 0.6453(6) 0.091(3) Uani 1 1 d . . . 
H43A H 0.8023 0.9296 0.7105 0.109 Uiso 1 1 calc R . . 
C44 C 0.7791(7) 0.8855(5) 0.5635(6) 0.076(2) Uani 1 1 d . . . 
H44A H 0.8636 0.9199 0.5717 0.092 Uiso 1 1 calc R . . 
C45 C 0.5286(7) 0.7841(6) 0.5396(5) 0.0678(17) Uani 1 1 d . . . 
H45A H 0.4445 0.7502 0.5327 0.081 Uiso 1 1 calc R . . 
C46 C 0.6872(6) 0.8270(4) 0.4667(5) 0.0556(14) Uani 1 1 d . . . 
H46A H 0.7113 0.8216 0.4097 0.067 Uiso 1 1 calc R . . 
C51 C 0.3797(5) 0.8072(4) 0.2306(4) 0.0431(11) Uani 1 1 d . . . 
C52 C 0.4750(8) 0.8928(6) 0.2509(7) 0.100(3) Uani 1 1 d . . . 
H52A H 0.5591 0.9035 0.3008 0.120 Uiso 1 1 calc R . . 
C53 C 0.2328(8) 0.8689(7) 0.1105(7) 0.096(3) Uani 1 1 d . . . 
H53A H 0.1481 0.8599 0.0625 0.115 Uiso 1 1 calc R . . 
C54 C 0.4481(9) 0.9643(6) 0.1978(8) 0.110(4) Uani 1 1 d . . . 
H54A H 0.5155 1.0214 0.2104 0.132 Uiso 1 1 calc R . . 
C55 C 0.2589(7) 0.7963(6) 0.1608(6) 0.084(2) Uani 1 1 d . . . 
H55A H 0.1916 0.7385 0.1462 0.101 Uiso 1 1 calc R . . 
C56 C 0.3284(8) 0.9528(5) 0.1297(6) 0.0712(18) Uani 1 1 d . . . 
H56A H 0.3104 1.0021 0.0955 0.085 Uiso 1 1 calc R . . 
C61 C -0.1081(5) 0.2005(4) 0.4391(4) 0.0446(11) Uani 1 1 d . . . 
C62 C 0.0082(9) 0.2364(6) 0.6226(6) 0.086(2) Uani 1 1 d . . . 
H62A H 0.0852 0.2666 0.6815 0.103 Uiso 1 1 calc R . . 
C63 C -0.1044(10) 0.1835(7) 0.6306(7) 0.088(2) Uani 1 1 d . . . 
H63A H -0.1022 0.1761 0.6950 0.106 Uiso 1 1 calc R . . 
C64 C -0.2182(8) 0.1421(6) 0.5454(6) 0.0718(18) Uani 1 1 d . . . 
H64A H -0.2942 0.1086 0.5521 0.086 Uiso 1 1 calc R . . 
C65 C 0.0049(6) 0.2439(5) 0.5265(5) 0.0638(16) Uani 1 1 d . . . 
H65A H 0.0807 0.2790 0.5207 0.077 Uiso 1 1 calc R . . 
C66 C -0.2221(6) 0.1496(4) 0.4494(5) 0.0533(13) Uani 1 1 d . . . 
H66A H -0.3002 0.1208 0.3912 0.064 Uiso 1 1 calc R . . 
C71 C -0.1862(7) -0.1152(5) 0.2051(6) 0.0728(19) Uani 1 1 d . . . 
H71A H -0.2169 -0.1682 0.2295 0.087 Uiso 1 1 calc R . . 
C72 C -0.1535(6) -0.1335(5) 0.1241(5) 0.0651(18) Uani 1 1 d . . . 
H72A H -0.1625 -0.1992 0.0912 0.078 Uiso 1 1 calc R . . 
C73 C -0.1753(7) -0.0180(4) 0.2545(6) 0.0638(16) Uani 1 1 d . . . 
H73A H -0.1997 -0.0068 0.3112 0.077 Uiso 1 1 calc R . . 
C74 C -0.0964(7) 0.0396(4) 0.1354(5) 0.0611(15) Uani 1 1 d . . . 
H74A H -0.0668 0.0915 0.1092 0.073 Uiso 1 1 calc R . . 
C75 C -0.1290(4) 0.0615(3) 0.2211(4) 0.0398(10) Uani 1 1 d . . . 
C76 C -0.1069(8) -0.0571(5) 0.0884(6) 0.078(2) Uani 1 1 d . . . 
H76A H -0.0820 -0.0702 0.0321 0.093 Uiso 1 1 calc R . . 
C81 C 0.6039(7) 0.6092(5) 0.0897(6) 0.0668(17) Uani 1 1 d . . . 
H81A H 0.5941 0.6141 0.0231 0.080 Uiso 1 1 calc R . . 
C82 C 0.6312(7) 0.5953(6) 0.2866(6) 0.0682(17) Uani 1 1 d . . . 
H82A H 0.6411 0.5900 0.3531 0.082 Uiso 1 1 calc R . . 
C83 C 0.5311(6) 0.6503(4) 0.1388(5) 0.0534(13) Uani 1 1 d . . . 
H83A H 0.4717 0.6826 0.1047 0.064 Uiso 1 1 calc R . . 
C84 C 0.5457(5) 0.6439(4) 0.2373(4) 0.0418(11) Uani 1 1 d . . . 
C85 C 0.7044(7) 0.5533(6) 0.2361(6) 0.077(2) Uani 1 1 d . . . 
H85A H 0.7628 0.5199 0.2694 0.092 Uiso 1 1 calc R . . 
C86 C 0.6907(7) 0.5609(5) 0.1401(6) 0.0710(19) Uani 1 1 d . . . 
H86A H 0.7404 0.5333 0.1076 0.085 Uiso 1 1 calc R . . 
C91 C -0.5472(7) 0.2453(7) 0.1184(7) 0.081(2) Uani 1 1 d . . . 
H91A H -0.6295 0.2546 0.0850 0.097 Uiso 1 1 calc R . . 
C92 C -0.3504(7) 0.2851(6) 0.2688(7) 0.078(2) Uani 1 1 d . . . 
H92A H -0.3000 0.3218 0.3371 0.093 Uiso 1 1 calc R . . 
C93 C -0.5020(7) 0.1798(7) 0.0668(6) 0.081(2) Uani 1 1 d . . . 
H93A H -0.5523 0.1436 -0.0018 0.097 Uiso 1 1 calc R . . 
C94 C -0.3794(6) 0.1685(5) 0.1191(5) 0.0613(15) Uani 1 1 d . . . 
H94A H -0.3476 0.1238 0.0843 0.074 Uiso 1 1 calc R . . 
C95 C -0.3027(5) 0.2200(4) 0.2195(4) 0.0442(11) Uani 1 1 d . . . 
C96 C -0.4729(8) 0.2972(6) 0.2184(8) 0.086(2) Uani 1 1 d . . . 
H96A H -0.5050 0.3415 0.2534 0.103 Uiso 1 1 calc R . . 
H H 0.091(6) 0.564(5) 0.504(5) 0.07(2) Uiso 1 1 d . . . 
H H 0.388(7) 0.394(5) 0.450(6) 0.07(2) Uiso 1 1 d . . . 
 
loop_ 
 _atom_site_aniso_label 
 _atom_site_aniso_U_11 
 _atom_site_aniso_U_22 
 _atom_site_aniso_U_33 
 _atom_site_aniso_U_23 
 _atom_site_aniso_U_13 
 _atom_site_aniso_U_12 
Sb1 0.03449(18) 0.03750(19) 0.0431(2) 0.01296(14) 0.02024(15) 0.00478(13) 
Ru1 0.0295(2) 0.03001(19) 0.0374(2) 0.00258(15) 0.01632(16) 0.00316(14) 
O1 0.055(2) 0.0424(19) 0.053(2) 0.0004(16) 0.0354(19) 0.0027(16) 
C1 0.037(3) 0.051(3) 0.053(3) 0.020(3) 0.010(2) 0.013(2) 
Sb2 0.03251(18) 0.03198(18) 0.0461(2) 0.00571(14) 0.01629(15) 0.00183(13) 
Ru2 0.02924(19) 0.0352(2) 0.0354(2) 0.00968(15) 0.01697(15) 0.00539(14) 
O2 0.049(2) 0.0392(18) 0.054(2) 0.0036(16) 0.0342(18) 0.0032(15) 
C2 0.059(3) 0.045(3) 0.051(3) 0.007(2) 0.038(3) 0.012(2) 
O3 0.0361(18) 0.0438(19) 0.053(2) 0.0179(16) 0.0122(16) 0.0032(14) 
C3 0.039(3) 0.055(3) 0.069(4) 0.028(3) 0.018(3) 0.005(2) 
O4 0.0328(16) 0.050(2) 0.047(2) 0.0189(16) 0.0135(15) 0.0071(14) 
C4 0.047(3) 0.048(3) 0.045(3) 0.014(2) 0.015(2) 0.009(2) 
O5 0.094(4) 0.062(3) 0.111(4) -0.021(3) 0.074(4) 0.007(3) 
C5 0.044(3) 0.041(3) 0.067(4) 0.002(2) 0.030(3) 0.004(2) 
C6 0.047(3) 0.056(3) 0.043(3) 0.012(2) 0.024(2) 0.008(2) 
O6 0.047(2) 0.094(4) 0.122(5) 0.061(3) 0.014(3) 0.021(2) 
O7 0.065(3) 0.083(3) 0.071(3) 0.025(3) -0.002(3) 0.007(2) 
O8 0.092(4) 0.098(4) 0.054(3) 0.001(3) 0.046(3) 0.012(3) 
C41 0.048(3) 0.044(3) 0.042(3) 0.013(2) 0.020(2) 0.016(2) 
C42 0.098(6) 0.132(8) 0.046(4) 0.000(4) 0.026(4) 0.034(6) 
C43 0.094(6) 0.098(6) 0.046(4) -0.010(4) -0.001(4) 0.031(5) 
C44 0.060(4) 0.060(4) 0.079(5) 0.005(3) -0.004(3) 0.016(3) 
C45 0.067(4) 0.087(5) 0.060(4) 0.018(4) 0.033(3) 0.030(4) 
C46 0.046(3) 0.059(3) 0.053(3) 0.010(3) 0.014(3) 0.009(3) 
C51 0.045(3) 0.042(3) 0.046(3) 0.015(2) 0.021(2) 0.009(2) 
C52 0.072(5) 0.071(5) 0.111(7) 0.051(5) -0.014(4) -0.016(4) 
C53 0.066(5) 0.127(7) 0.098(6) 0.078(6) 0.017(4) 0.020(5) 
C54 0.105(7) 0.056(4) 0.114(7) 0.047(5) -0.016(5) -0.014(4) 
C55 0.060(4) 0.089(5) 0.083(5) 0.052(4) 0.004(4) -0.005(4) 
C56 0.098(5) 0.058(4) 0.068(4) 0.033(3) 0.031(4) 0.030(4) 
C61 0.047(3) 0.040(2) 0.046(3) 0.008(2) 0.019(2) 0.013(2) 
C62 0.098(6) 0.091(6) 0.051(4) 0.015(4) 0.006(4) 0.033(5) 
C63 0.118(7) 0.099(6) 0.068(5) 0.036(5) 0.043(5) 0.053(6) 
C64 0.088(5) 0.078(5) 0.068(4) 0.029(4) 0.042(4) 0.035(4) 
C65 0.049(3) 0.073(4) 0.060(4) 0.011(3) 0.012(3) 0.020(3) 
C66 0.053(3) 0.052(3) 0.054(3) 0.012(3) 0.024(3) 0.010(2) 
C71 0.089(5) 0.041(3) 0.081(5) 0.023(3) 0.025(4) 0.012(3) 
C72 0.064(4) 0.043(3) 0.063(4) -0.005(3) 0.002(3) 0.018(3) 
C73 0.073(4) 0.048(3) 0.077(4) 0.017(3) 0.040(4) 0.011(3) 
C74 0.074(4) 0.041(3) 0.057(4) -0.001(3) 0.028(3) -0.001(3) 
C75 0.030(2) 0.033(2) 0.046(3) 0.0056(19) 0.0069(19) 0.0034(17) 
C76 0.091(5) 0.059(4) 0.068(4) -0.012(3) 0.031(4) 0.012(4) 
C81 0.081(4) 0.067(4) 0.065(4) 0.015(3) 0.048(4) 0.014(3) 
C82 0.064(4) 0.093(5) 0.066(4) 0.029(4) 0.036(3) 0.034(4) 
C83 0.054(3) 0.053(3) 0.060(3) 0.011(3) 0.033(3) 0.012(2) 
C84 0.035(2) 0.041(2) 0.053(3) 0.010(2) 0.024(2) 0.0080(19) 
C85 0.072(5) 0.096(5) 0.087(5) 0.034(4) 0.041(4) 0.050(4) 
C86 0.066(4) 0.068(4) 0.085(5) 0.002(4) 0.049(4) 0.012(3) 
C91 0.048(4) 0.111(6) 0.089(6) 0.049(5) 0.019(4) 0.026(4) 
C92 0.052(4) 0.073(4) 0.095(6) -0.002(4) 0.020(4) 0.023(3) 
C93 0.059(4) 0.109(6) 0.070(5) 0.030(4) 0.012(3) 0.026(4) 
C94 0.047(3) 0.077(4) 0.056(4) 0.017(3) 0.015(3) 0.018(3) 
C95 0.036(2) 0.042(3) 0.057(3) 0.020(2) 0.022(2) 0.004(2) 
C96 0.073(5) 0.090(6) 0.104(7) 0.025(5) 0.038(5) 0.041(4) 
 
_geom_special_details 
; 
 All esds (except the esd in the dihedral angle between two l.s. planes) 
 are estimated using the full covariance matrix.  The cell esds are taken 
 into account individually in the estimation of esds in distances, angles 
 and torsion angles; correlations between esds in cell parameters are only 
 used when they are defined by crystal symmetry.  An approximate (isotropic) 
 treatment of cell esds is used for estimating esds involving l.s. planes. 
; 
 
loop_ 
 _geom_bond_atom_site_label_1 
 _geom_bond_atom_site_label_2 
 _geom_bond_distance 
 _geom_bond_site_symmetry_2 
 _geom_bond_publ_flag 
Sb1 C41 2.116(5) . ? 
Sb1 C84 2.120(5) . ? 
Sb1 C51 2.128(5) . ? 
Sb1 Ru2 2.6760(14) . ? 
Ru1 C4 1.834(5) . ? 
Ru1 C5 1.836(5) . ? 
Ru1 O2 2.118(3) . ? 
Ru1 O3 2.126(4) . ? 
Ru1 Ru2 2.6690(12) . ? 
Ru1 Sb2 2.6775(11) . ? 
O1 C2 1.252(6) . ? 
O1 Ru2 2.121(4) . ? 
C1 O4 1.232(7) . ? 
C1 O3 1.250(6) . ? 
Sb2 C95 2.117(5) . ? 
Sb2 C75 2.117(5) . ? 
Sb2 C61 2.120(5) . ? 
Ru2 C6 1.826(5) . ? 
Ru2 C3 1.832(6) . ? 
Ru2 O4 2.116(3) . ? 
O2 C2 1.247(6) . ? 
C3 O6 1.137(7) . ? 
C4 O7 1.148(7) . ? 
O5 C5 1.133(6) . ? 
C6 O8 1.147(7) . ? 
C41 C45 1.377(8) . ? 
C41 C46 1.383(8) . ? 
C42 C45 1.365(10) . ? 
C42 C43 1.366(12) . ? 
C43 C44 1.353(12) . ? 
C44 C46 1.391(9) . ? 
C51 C55 1.339(8) . ? 
C51 C52 1.355(8) . ? 
C52 C54 1.382(10) . ? 
C53 C56 1.343(11) . ? 
C53 C55 1.371(10) . ? 
C54 C56 1.320(11) . ? 
C61 C65 1.371(8) . ? 
C61 C66 1.399(8) . ? 
C62 C65 1.373(10) . ? 
C62 C63 1.381(12) . ? 
C63 C64 1.357(12) . ? 
C64 C66 1.370(9) . ? 
C71 C72 1.317(10) . ? 
C71 C73 1.386(9) . ? 
C72 C76 1.355(11) . ? 
C73 C75 1.368(8) . ? 
C74 C76 1.372(8) . ? 
C74 C75 1.384(8) . ? 
C81 C86 1.373(10) . ? 
C81 C83 1.381(8) . ? 
C82 C84 1.361(8) . ? 
C82 C85 1.403(9) . ? 
C83 C84 1.373(8) . ? 
C85 C86 1.345(10) . ? 
C91 C96 1.356(12) . ? 
C91 C93 1.356(11) . ? 
C92 C95 1.354(8) . ? 
C92 C96 1.376(9) . ? 
C93 C94 1.378(9) . ? 
C94 C95 1.363(8) . ? 
 
loop_ 
 _geom_angle_atom_site_label_1 
 _geom_angle_atom_site_label_2 
 _geom_angle_atom_site_label_3 
 _geom_angle 
 _geom_angle_site_symmetry_1 
 _geom_angle_site_symmetry_3 
 _geom_angle_publ_flag 
C41 Sb1 C84 99.4(2) . . ? 
C41 Sb1 C51 101.4(2) . . ? 
C84 Sb1 C51 98.85(19) . . ? 
C41 Sb1 Ru2 124.82(14) . . ? 
C84 Sb1 Ru2 107.42(14) . . ? 
C51 Sb1 Ru2 120.20(14) . . ? 
C4 Ru1 C5 88.4(3) . . ? 
C4 Ru1 O2 95.4(2) . . ? 
C5 Ru1 O2 175.06(19) . . ? 
C4 Ru1 O3 175.69(19) . . ? 
C5 Ru1 O3 92.6(2) . . ? 
O2 Ru1 O3 83.34(16) . . ? 
C4 Ru1 Ru2 93.22(18) . . ? 
C5 Ru1 Ru2 93.20(17) . . ? 
O2 Ru1 Ru2 83.51(10) . . ? 
O3 Ru1 Ru2 82.54(10) . . ? 
C4 Ru1 Sb2 90.72(18) . . ? 
C5 Ru1 Sb2 96.50(17) . . ? 
O2 Ru1 Sb2 86.57(10) . . ? 
O3 Ru1 Sb2 93.33(10) . . ? 
Ru2 Ru1 Sb2 169.627(19) . . ? 
C2 O1 Ru2 121.1(3) . . ? 
O4 C1 O3 128.5(5) . . ? 
C95 Sb2 C75 99.76(19) . . ? 
C95 Sb2 C61 99.7(2) . . ? 
C75 Sb2 C61 100.7(2) . . ? 
C95 Sb2 Ru1 108.30(13) . . ? 
C75 Sb2 Ru1 120.23(14) . . ? 
C61 Sb2 Ru1 123.91(15) . . ? 
C6 Ru2 C3 89.0(3) . . ? 
C6 Ru2 O4 95.2(2) . . ? 
C3 Ru2 O4 175.0(2) . . ? 
C6 Ru2 O1 175.5(2) . . ? 
C3 Ru2 O1 92.7(2) . . ? 
O4 Ru2 O1 82.95(16) . . ? 
C6 Ru2 Ru1 93.12(18) . . ? 
C3 Ru2 Ru1 93.60(18) . . ? 
O4 Ru2 Ru1 83.58(10) . . ? 
O1 Ru2 Ru1 82.57(11) . . ? 
C6 Ru2 Sb1 89.81(17) . . ? 
C3 Ru2 Sb1 96.39(18) . . ? 
O4 Ru2 Sb1 86.26(10) . . ? 
O1 Ru2 Sb1 94.19(11) . . ? 
Ru1 Ru2 Sb1 169.64(2) . . ? 
C2 O2 Ru1 119.8(3) . . ? 
O2 C2 O1 127.1(5) . . ? 
C1 O3 Ru1 120.3(4) . . ? 
O6 C3 Ru2 179.1(6) . . ? 
C1 O4 Ru2 119.4(3) . . ? 
O7 C4 Ru1 179.1(6) . . ? 
O5 C5 Ru1 178.9(6) . . ? 
O8 C6 Ru2 179.2(6) . . ? 
C45 C41 C46 118.1(6) . . ? 
C45 C41 Sb1 120.4(4) . . ? 
C46 C41 Sb1 121.5(4) . . ? 
C45 C42 C43 119.6(7) . . ? 
C44 C43 C42 122.0(7) . . ? 
C43 C44 C46 118.0(7) . . ? 
C42 C45 C41 120.9(7) . . ? 
C41 C46 C44 121.4(7) . . ? 
C55 C51 C52 117.9(6) . . ? 
C55 C51 Sb1 120.3(4) . . ? 
C52 C51 Sb1 121.8(5) . . ? 
C51 C52 C54 120.4(7) . . ? 
C56 C53 C55 120.7(7) . . ? 
C56 C54 C52 121.0(7) . . ? 
C51 C55 C53 121.1(7) . . ? 
C54 C56 C53 118.9(7) . . ? 
C65 C61 C66 118.7(6) . . ? 
C65 C61 Sb2 119.6(4) . . ? 
C66 C61 Sb2 121.7(4) . . ? 
C65 C62 C63 119.1(7) . . ? 
C64 C63 C62 120.6(8) . . ? 
C63 C64 C66 120.4(8) . . ? 
C61 C65 C62 121.2(7) . . ? 
C64 C66 C61 119.9(6) . . ? 
C72 C71 C73 120.9(6) . . ? 
C71 C72 C76 120.3(6) . . ? 
C75 C73 C71 120.9(6) . . ? 
C76 C74 C75 121.3(6) . . ? 
C73 C75 C74 116.7(5) . . ? 
C73 C75 Sb2 123.7(4) . . ? 
C74 C75 Sb2 119.6(4) . . ? 
C72 C76 C74 119.8(7) . . ? 
C86 C81 C83 119.4(6) . . ? 
C84 C82 C85 119.4(6) . . ? 
C84 C83 C81 120.7(6) . . ? 
C82 C84 C83 119.7(5) . . ? 
C82 C84 Sb1 119.4(4) . . ? 
C83 C84 Sb1 120.4(4) . . ? 
C86 C85 C82 120.6(7) . . ? 
C85 C86 C81 120.3(6) . . ? 
C96 C91 C93 120.3(7) . . ? 
C95 C92 C96 120.5(7) . . ? 
C91 C93 C94 118.0(7) . . ? 
C95 C94 C93 122.9(7) . . ? 
C92 C95 C94 117.7(6) . . ? 
C92 C95 Sb2 120.1(5) . . ? 
C94 C95 Sb2 121.9(4) . . ? 
C91 C96 C92 120.7(7) . . ? 
 
_diffrn_measured_fraction_theta_max    0.897 
_diffrn_reflns_theta_full              28.34 
_diffrn_measured_fraction_theta_full   0.897 
_refine_diff_density_max    1.020 
_refine_diff_density_min   -0.682 
_refine_diff_density_rms    0.117 
